c instance by G2
c solution = 01010000110111111101100
c Known solution cost is 1256 
p cnf 23 30
w 39 98 11 41 86 72 44 59 94 7 50 76 63 56 9 29 53 53 91 31 45 96 53
20 -13 19 0
3 -11 -16 0
-1 -3 -20 0
12 -15 -23 0
22 -6 18 0
-16 7 -5 0
8 -12 10 0
18 16 1 0
-15 -16 18 0
8 -19 -12 0
23 -6 -16 0
-12 -22 -2 0
2 -15 -13 0
-23 11 -17 0
8 -12 15 0
-4 -18 14 0
-21 -20 -8 0
5 16 -10 0
-3 -15 1 0
-16 20 -18 0
-16 12 -17 0
-18 -4 -1 0
9 23 6 0
6 4 19 0
17 -4 23 0
-4 15 17 0
-21 5 -19 0
-18 13 5 0
5 -7 -9 0
21 5 -16 0
